341012 142156 78 199
341012 142156 78 200
341012 142156 78 201
341012 142156 78 202
341012 142156 94 203
341012 142156 94 204
341012 142156 93 205
341012 142156 78 206
341012 142156 79 207
341012 142156 93 208
341012 142156 94 209
341012 142156 94 210
341012 142156 94 211
341012 142156 93 212
341012 142156 94 213
341012 142156 78 214
341012 142156 78 215
341012 142156 94 216
341012 142156 94 217
341012 142156 62 218
341012 142156 78 219
341012 142156 94 220
341012 142156 78 221
341012 142156 78 222
341012 142156 94 223
341012 142156 78 224
341012 142156 78 225
341012 142156 79 226
341012 142156 78 227
341012 142156 93 228
